/*********************************************
 * OPL 12.6.0.0 Data
 * Author: Adrian Rodriguez Bazaga, Pau Rodriguez Esmerats
 * Creation Date: 06/12/2017 at 23:03:01
 *********************************************/

nNurses=196;
maxConsec=2;
maxPresence=7;
maxHours=5;
minHours=1;
hours=24;
demand= [38 33 51 48 33 51 48 37 29 15 3 5 6 9 8 5 7 4 5 4 28 48 22 49  ];
